n_res = 5;
rcap = [22, 18, 76, 80, 74];
rtype = [1, 1, 2, 2, 2];
n_tasks = 16;
modes = [ {1, 2, 3}, {4, 5, 6}, {7, 8, 9}, {10, 11, 12}, {13, 14, 15}, {16, 17, 18}, {19, 20, 21}, {22, 23, 24}, {25, 26, 27}, {28, 29, 30}, {31, 32, 33}, {34, 35, 36}, {37, 38, 39}, {40, 41, 42}, {43, 44, 45}, {46, 47, 48} ];
succ = [ {7, 15}, {7, 9, 11}, {4, 5, 6}, {8, 9}, {7, 9, 11}, {10}, {16}, {10, 14}, {14}, {12, 13}, {12, 13, 14}, {15, 16}, {15, 16}, {}, {}, {} ];
n_opt = 48;
dur = [5, 7, 9, 2, 7, 10, 1, 1, 7, 8, 10, 10, 1, 4, 10, 1, 1, 8, 6, 8, 10, 3, 8, 9, 1, 1, 10, 4, 9, 10, 6, 7, 8, 2, 4, 4, 3, 6, 8, 5, 7, 9, 2, 5, 7, 2, 3, 5];
rreq = [|  0,  4,  4, 10,  0,  9,  0,  9,  5,  0,  2,  3,  0,  0,  8,  0,  0,  2,  6,  0,  0,  8,  8,  8,  0,  2,  0,  3,  0,  0,  0,  0,  1,  0,  0,  3,  8,  8,  0,  0,  4,  2,  0,  9,  9,  5,  0,  0
        |  5,  0,  0,  0,  6,  0,  8,  0,  0,  2,  0,  0,  4,  3,  0,  4,  1,  0,  0,  7,  7,  0,  0,  0,  8,  0,  8,  0,  6,  6,  9,  6,  0,  6,  5,  0,  0,  0,  2,  3,  0,  0,  8,  0,  0,  0,  4,  2
        |  5,  4,  4,  8,  7,  5, 10,  7,  4,  9,  6,  5,  4,  3,  2,  5,  5,  4,  6,  5,  5,  9,  8,  5,  7,  7,  6,  7,  6,  5,  2,  2,  2,  7,  2,  3,  8,  7,  5,  7,  5,  1,  8,  7,  4,  7,  7,  6
        |  9,  8,  7, 10, 10, 10,  6, 10,  3,  9,  9,  9,  3,  2,  2,  6,  8,  2,  2,  2,  1,  5,  5,  2, 10, 10,  9,  7,  5,  2,  6,  6,  3,  6,  6,  5,  6,  5,  5,  9,  5,  3,  4,  3,  2,  8,  6,  4
        |  7,  6,  2,  4,  3,  2,  9,  9,  9, 10,  2,  2,  8,  7,  7,  5,  6,  1,  9,  9,  9,  2,  2,  1,  3,  4,  3,  5,  4,  2,  6,  5,  1,  6,  6,  5,  8,  8,  5,  7,  7,  7,  6,  6,  5,  6,  6,  3 |];
